NAME : KROB149C.31735.tour
COMMENT : Cost = 0_31735
COMMENT : Found by LKH [Keld Helsgaun] Sun Sep 17 18:03:46 2017
TYPE : TOUR
DIMENSION : 149
TOUR_SECTION
1
53
27
107
115
77
80
65
110
55
47
104
6
133
75
22
8
106
17
108
113
126
72
124
71
39
147
101
119
5
86
129
130
138
21
122
89
41
118
73
3
69
74
57
36
10
92
140
99
19
105
66
44
63
134
145
9
78
82
7
26
61
141
131
32
117
24
136
125
46
12
40
116
4
142
93
49
18
29
37
120
16
51
127
128
103
48
84
11
52
149
87
96
143
97
135
81
45
33
100
14
60
139
59
30
68
2
35
23
102
70
111
121
76
91
123
94
95
50
132
43
56
38
28
88
98
58
109
144
34
90
25
114
112
83
62
137
54
148
146
31
67
42
20
64
79
13
15
85
-1
EOF
